
Gurobi 12.0.3 (linux64) logging started Thu Aug 21 03:26:48 2025

Set parameter LogFile to value "logs/instance-10.txt"
Gurobi Optimizer version 12.0.3 build v12.0.3rc0 (linux64 - "Ubuntu 24.04.3 LTS")

CPU model: Intel(R) Core(TM) i5-8250U CPU @ 1.60GHz, instruction set [SSE2|AVX|AVX2]
Thread count: 4 physical cores, 8 logical processors, using up to 8 threads

Non-default parameters:
TimeLimit  900

Optimize a model with 59900 rows, 20100 columns and 159898 nonzeros
Model fingerprint: 0x40d94a6f
Variable types: 0 continuous, 20100 integer (20100 binary)
Coefficient statistics:
  Matrix range     [1e+00, 1e+00]
  Objective range  [1e+00, 1e+01]
  Bounds range     [1e+00, 1e+00]
  RHS range        [1e+00, 1e+00]
Found heuristic solution: objective -251.0000000
Found heuristic solution: objective 12.0000000
Presolve removed 31288 rows and 959 columns
Presolve time: 1.19s
Presolved: 28612 rows, 19141 columns, 86892 nonzeros
Variable types: 0 continuous, 19141 integer (19141 binary)
Found heuristic solution: objective 95.0000000

Root simplex log...

Iteration    Objective       Primal Inf.    Dual Inf.      Time
   13172    3.2415000e+04   4.212000e+03   0.000000e+00      5s
   19480    2.5858000e+04   0.000000e+00   0.000000e+00      7s

Root relaxation: objective 2.585800e+04, 19480 iterations, 5.73 seconds (4.16 work units)

    Nodes    |    Current Node    |     Objective Bounds      |     Work
 Expl Unexpl |  Obj  Depth IntInf | Incumbent    BestBd   Gap | It/Node Time

     0     0 25858.0000    0 9671   95.00000 25858.0000      -     -    7s
H    0     0                     606.0000000 25858.0000  4167%     -    7s
H    0     0                    3058.0000000 25858.0000   746%     -    7s
H    0     0                    3077.0000000 25075.5000   715%     -   14s
     0     0 24088.7500    0 9532 3077.00000 24088.7500   683%     -   21s
     0     0 22412.5000    0 9607 3077.00000 22412.5000   628%     -   27s
     0     0 21821.7500    0 9565 3077.00000 21821.7500   609%     -   34s
H    0     0                    3151.0000000 20747.7607   558%     -   53s
     0     0 20747.7607    0 10564 3151.00000 20747.7607   558%     -   53s
H    0     0                    3343.0000000 20092.4504   501%     -   76s
     0     0 20092.4504    0 11232 3343.00000 20092.4504   501%     -   76s
     0     0 20077.6667    0 11224 3343.00000 20077.6667   501%     -   77s
     0     0 20077.5417    0 11227 3343.00000 20077.5417   501%     -   77s
H    0     0                    3375.0000000 19078.1319   465%     -  135s
H    0     0                    3423.0000000 19078.1319   457%     -  135s
H    0     0                    3468.0000000 19078.1319   450%     -  135s
H    0     0                    3478.0000000 19078.1319   449%     -  135s
     0     0 19078.1319    0 10694 3478.00000 19078.1319   449%     -  135s
H    0     0                    3577.0000000 18045.0797   404%     -  186s
H    0     0                    3843.0000000 18045.0797   370%     -  186s
H    0     0                    3915.0000000 18045.0797   361%     -  186s
H    0     0                    3921.0000000 18045.0797   360%     -  186s
H    0     0                    3934.0000000 18045.0797   359%     -  186s
H    0     0                    3998.0000000 18045.0797   351%     -  186s
H    0     0                    4035.0000000 18045.0797   347%     -  186s
H    0     0                    4066.0000000 18045.0797   344%     -  186s
     0     0 18045.0797    0 10415 4066.00000 18045.0797   344%     -  186s
H    0     0                    4220.0000000 16629.5974   294%     -  289s
H    0     0                    4352.0000000 16629.5974   282%     -  289s
H    0     0                    4471.0000000 16629.5974   272%     -  289s
H    0     0                    4475.0000000 16629.5974   272%     -  289s
H    0     0                    4497.0000000 16629.5974   270%     -  289s
H    0     0                    4637.0000000 16629.5974   259%     -  289s
H    0     0                    4640.0000000 16629.5974   258%     -  289s
H    0     0                    4692.0000000 16629.5974   254%     -  289s
H    0     0                    4774.0000000 16629.5974   248%     -  289s
H    0     0                    4779.0000000 16629.5974   248%     -  289s
H    0     0                    4787.0000000 16629.5974   247%     -  289s
H    0     0                    4866.0000000 16629.5974   242%     -  289s
     0     0 16629.5974    0 10194 4866.00000 16629.5974   242%     -  289s
H    0     0                    4932.0000000 15729.2288   219%     -  411s
H    0     0                    4943.0000000 15729.2288   218%     -  411s
H    0     0                    4948.0000000 15729.2288   218%     -  411s
H    0     0                    4952.0000000 15729.2288   218%     -  411s
     0     0 15729.2288    0 10908 4952.00000 15729.2288   218%     -  412s
H    0     0                    5183.0000000 14899.5913   187%     -  539s
     0     0 14899.5913    0 11823 5183.00000 14899.5913   187%     -  539s
     0     0 14605.0988    0 12477 5183.00000 14605.0988   182%     -  682s
     0     0 14466.1428    0 12503 5183.00000 14466.1428   179%     -  811s
     0     0          -    0      5183.00000 14466.1428   179%     -  900s

Cutting planes:
  Gomory: 1
  Dual implied bound: 6
  Zero half: 559
  RLT: 8403
  BQP: 5344

Explored 1 nodes (478423 simplex iterations) in 900.04 seconds (368.65 work units)
Thread count was 8 (of 8 available processors)

Solution count 10: 5183 4952 4948 ... 4692

Time limit reached
Best objective 5.183000000000e+03, best bound 1.446600000000e+04, gap 179.1048%
